c File: data_files/evolved_graphs/g0148.col
c
c Auto generated graph
c
p edge 100 2073
e 1 2
e 1 3
e 1 7
e 1 9
e 1 10
e 1 11
e 1 12
e 1 14
e 1 16
e 1 19
e 1 24
e 1 25
e 1 26
e 1 27
e 1 30
e 1 31
e 1 32
e 1 33
e 1 34
e 1 35
e 1 36
e 1 37
e 1 38
e 1 39
e 1 40
e 1 41
e 1 42
e 1 43
e 1 44
e 1 45
e 1 46
e 1 47
e 1 48
e 1 49
e 1 50
e 1 51
e 1 52
e 1 53
e 1 54
e 1 55
e 1 56
e 1 93
e 2 3
e 2 4
e 2 9
e 2 10
e 2 11
e 2 12
e 2 14
e 2 18
e 2 19
e 2 24
e 2 25
e 2 26
e 2 27
e 2 28
e 2 29
e 2 30
e 2 31
e 2 32
e 2 33
e 2 35
e 2 36
e 2 38
e 2 39
e 2 40
e 2 41
e 2 42
e 2 43
e 2 44
e 2 45
e 2 46
e 2 47
e 2 48
e 2 49
e 2 50
e 2 51
e 2 52
e 2 53
e 2 54
e 2 55
e 2 56
e 2 57
e 2 59
e 2 90
e 2 95
e 2 96
e 2 100
e 3 5
e 3 9
e 3 20
e 3 21
e 3 24
e 3 26
e 3 27
e 3 28
e 3 29
e 3 30
e 3 33
e 3 34
e 3 35
e 3 36
e 3 37
e 3 38
e 3 39
e 3 40
e 3 41
e 3 42
e 3 43
e 3 44
e 3 45
e 3 46
e 3 47
e 3 48
e 3 50
e 3 51
e 3 52
e 3 53
e 3 54
e 3 55
e 3 56
e 3 58
e 3 59
e 3 60
e 3 82
e 3 83
e 3 84
e 3 95
e 3 96
e 3 97
e 4 5
e 4 6
e 4 7
e 4 8
e 4 9
e 4 10
e 4 11
e 4 14
e 4 23
e 4 24
e 4 26
e 4 27
e 4 28
e 4 29
e 4 30
e 4 31
e 4 32
e 4 33
e 4 34
e 4 35
e 4 36
e 4 37
e 4 38
e 4 39
e 4 40
e 4 41
e 4 42
e 4 43
e 4 44
e 4 45
e 4 46
e 4 48
e 4 49
e 4 50
e 4 51
e 4 52
e 4 53
e 4 54
e 4 55
e 4 56
e 4 58
e 4 59
e 4 95
e 4 96
e 4 97
e 4 98
e 4 100
e 5 6
e 5 7
e 5 8
e 5 9
e 5 10
e 5 14
e 5 22
e 5 24
e 5 25
e 5 26
e 5 27
e 5 28
e 5 29
e 5 30
e 5 31
e 5 32
e 5 33
e 5 34
e 5 35
e 5 36
e 5 37
e 5 38
e 5 40
e 5 41
e 5 42
e 5 43
e 5 44
e 5 45
e 5 46
e 5 47
e 5 48
e 5 49
e 5 50
e 5 51
e 5 52
e 5 53
e 5 54
e 5 55
e 5 56
e 5 58
e 5 59
e 5 60
e 5 95
e 5 96
e 5 97
e 5 98
e 5 99
e 6 7
e 6 8
e 6 9
e 6 10
e 6 14
e 6 24
e 6 25
e 6 26
e 6 27
e 6 28
e 6 29
e 6 30
e 6 31
e 6 32
e 6 33
e 6 34
e 6 35
e 6 36
e 6 37
e 6 38
e 6 39
e 6 40
e 6 41
e 6 42
e 6 44
e 6 45
e 6 46
e 6 47
e 6 48
e 6 49
e 6 50
e 6 51
e 6 52
e 6 53
e 6 54
e 6 55
e 6 56
e 6 58
e 6 59
e 6 60
e 6 63
e 6 64
e 6 65
e 6 66
e 6 67
e 6 73
e 6 75
e 6 78
e 6 95
e 6 96
e 6 97
e 7 8
e 7 10
e 7 14
e 7 15
e 7 16
e 7 25
e 7 26
e 7 28
e 7 29
e 7 30
e 7 31
e 7 33
e 7 34
e 7 36
e 7 37
e 7 38
e 7 39
e 7 40
e 7 41
e 7 42
e 7 43
e 7 44
e 7 46
e 7 47
e 7 48
e 7 49
e 7 51
e 7 52
e 7 53
e 7 54
e 7 55
e 7 56
e 7 57
e 7 58
e 7 59
e 7 60
e 7 63
e 7 64
e 7 65
e 7 66
e 7 67
e 7 84
e 7 95
e 7 96
e 7 97
e 8 9
e 8 10
e 8 11
e 8 14
e 8 20
e 8 23
e 8 24
e 8 26
e 8 27
e 8 28
e 8 29
e 8 30
e 8 31
e 8 32
e 8 33
e 8 35
e 8 36
e 8 37
e 8 38
e 8 39
e 8 40
e 8 41
e 8 42
e 8 43
e 8 44
e 8 46
e 8 47
e 8 48
e 8 49
e 8 50
e 8 51
e 8 52
e 8 54
e 8 55
e 8 56
e 8 57
e 8 59
e 8 60
e 8 63
e 8 65
e 8 66
e 8 67
e 8 72
e 8 81
e 8 84
e 8 95
e 8 96
e 8 97
e 8 98
e 8 99
e 9 10
e 9 11
e 9 14
e 9 15
e 9 24
e 9 25
e 9 26
e 9 27
e 9 28
e 9 29
e 9 30
e 9 31
e 9 32
e 9 33
e 9 34
e 9 35
e 9 36
e 9 37
e 9 38
e 9 39
e 9 40
e 9 41
e 9 42
e 9 43
e 9 44
e 9 45
e 9 46
e 9 47
e 9 48
e 9 49
e 9 50
e 9 51
e 9 52
e 9 53
e 9 54
e 9 55
e 9 56
e 9 58
e 9 59
e 9 60
e 9 63
e 9 64
e 9 65
e 9 66
e 9 67
e 9 79
e 9 83
e 9 94
e 9 95
e 9 96
e 9 97
e 10 11
e 10 14
e 10 15
e 10 19
e 10 21
e 10 23
e 10 25
e 10 26
e 10 27
e 10 28
e 10 29
e 10 30
e 10 31
e 10 32
e 10 33
e 10 34
e 10 36
e 10 37
e 10 39
e 10 40
e 10 41
e 10 42
e 10 43
e 10 45
e 10 47
e 10 48
e 10 49
e 10 50
e 10 51
e 10 52
e 10 53
e 10 54
e 10 55
e 10 57
e 10 58
e 10 59
e 10 60
e 10 61
e 10 62
e 10 63
e 10 64
e 10 65
e 10 66
e 10 67
e 10 75
e 10 91
e 10 95
e 10 96
e 10 97
e 10 99
e 10 100
e 11 14
e 11 16
e 11 20
e 11 23
e 11 24
e 11 26
e 11 28
e 11 29
e 11 30
e 11 31
e 11 32
e 11 33
e 11 34
e 11 35
e 11 36
e 11 37
e 11 38
e 11 39
e 11 40
e 11 41
e 11 42
e 11 43
e 11 44
e 11 45
e 11 46
e 11 47
e 11 48
e 11 49
e 11 50
e 11 51
e 11 52
e 11 53
e 11 54
e 11 55
e 11 56
e 11 57
e 11 58
e 11 59
e 11 60
e 11 61
e 11 62
e 11 63
e 11 64
e 11 65
e 11 66
e 11 96
e 11 97
e 12 13
e 12 14
e 12 15
e 12 16
e 12 17
e 12 18
e 12 19
e 12 20
e 12 21
e 12 22
e 12 23
e 12 24
e 12 25
e 12 26
e 12 27
e 12 28
e 12 29
e 12 30
e 12 31
e 12 32
e 12 33
e 12 34
e 12 35
e 12 36
e 12 37
e 12 38
e 12 40
e 12 41
e 12 42
e 12 43
e 12 44
e 12 45
e 12 46
e 12 47
e 12 48
e 12 49
e 12 50
e 12 51
e 12 52
e 12 53
e 12 54
e 12 55
e 12 56
e 12 57
e 12 58
e 12 59
e 12 60
e 12 61
e 12 62
e 12 63
e 12 64
e 12 65
e 12 66
e 12 76
e 12 78
e 12 99
e 12 100
e 13 14
e 13 15
e 13 16
e 13 17
e 13 18
e 13 19
e 13 20
e 13 21
e 13 22
e 13 23
e 13 25
e 13 26
e 13 27
e 13 28
e 13 29
e 13 30
e 13 31
e 13 32
e 13 33
e 13 34
e 13 35
e 13 36
e 13 37
e 13 38
e 13 39
e 13 40
e 13 41
e 13 43
e 13 44
e 13 45
e 13 46
e 13 47
e 13 48
e 13 49
e 13 50
e 13 51
e 13 52
e 13 53
e 13 54
e 13 55
e 13 56
e 13 57
e 13 58
e 13 59
e 13 60
e 13 61
e 13 63
e 13 64
e 13 65
e 13 66
e 13 67
e 13 86
e 13 89
e 13 99
e 14 15
e 14 16
e 14 17
e 14 18
e 14 19
e 14 20
e 14 21
e 14 22
e 14 23
e 14 25
e 14 26
e 14 27
e 14 28
e 14 29
e 14 31
e 14 32
e 14 34
e 14 35
e 14 36
e 14 37
e 14 38
e 14 39
e 14 40
e 14 41
e 14 42
e 14 43
e 14 44
e 14 45
e 14 46
e 14 47
e 14 48
e 14 49
e 14 50
e 14 51
e 14 52
e 14 53
e 14 54
e 14 55
e 14 56
e 14 57
e 14 58
e 14 59
e 14 60
e 14 61
e 14 62
e 14 63
e 14 64
e 14 65
e 14 66
e 14 67
e 15 16
e 15 17
e 15 18
e 15 19
e 15 20
e 15 21
e 15 22
e 15 23
e 15 25
e 15 27
e 15 28
e 15 30
e 15 32
e 15 33
e 15 34
e 15 35
e 15 36
e 15 37
e 15 38
e 15 39
e 15 40
e 15 41
e 15 42
e 15 43
e 15 44
e 15 45
e 15 46
e 15 47
e 15 49
e 15 50
e 15 51
e 15 52
e 15 53
e 15 54
e 15 56
e 15 57
e 15 58
e 15 59
e 15 60
e 15 61
e 15 62
e 15 63
e 15 64
e 15 65
e 15 66
e 15 67
e 15 76
e 15 77
e 15 79
e 16 17
e 16 18
e 16 19
e 16 20
e 16 21
e 16 22
e 16 23
e 16 24
e 16 25
e 16 26
e 16 27
e 16 28
e 16 29
e 16 30
e 16 31
e 16 32
e 16 33
e 16 34
e 16 35
e 16 37
e 16 38
e 16 39
e 16 40
e 16 41
e 16 42
e 16 43
e 16 44
e 16 45
e 16 46
e 16 47
e 16 48
e 16 50
e 16 51
e 16 52
e 16 53
e 16 54
e 16 55
e 16 56
e 16 57
e 16 58
e 16 59
e 16 60
e 16 61
e 16 62
e 16 63
e 16 64
e 16 65
e 16 66
e 16 67
e 16 81
e 17 18
e 17 19
e 17 20
e 17 21
e 17 22
e 17 23
e 17 24
e 17 25
e 17 26
e 17 27
e 17 28
e 17 29
e 17 30
e 17 31
e 17 32
e 17 33
e 17 34
e 17 35
e 17 36
e 17 37
e 17 38
e 17 39
e 17 40
e 17 41
e 17 42
e 17 43
e 17 44
e 17 45
e 17 46
e 17 47
e 17 48
e 17 49
e 17 50
e 17 52
e 17 53
e 17 54
e 17 55
e 17 56
e 17 57
e 17 58
e 17 59
e 17 60
e 17 61
e 17 62
e 17 63
e 17 64
e 17 65
e 17 66
e 17 67
e 17 70
e 17 76
e 18 19
e 18 20
e 18 21
e 18 22
e 18 23
e 18 24
e 18 25
e 18 26
e 18 27
e 18 28
e 18 29
e 18 30
e 18 31
e 18 32
e 18 33
e 18 34
e 18 35
e 18 36
e 18 37
e 18 38
e 18 40
e 18 42
e 18 43
e 18 44
e 18 45
e 18 46
e 18 47
e 18 48
e 18 49
e 18 50
e 18 62
e 18 63
e 18 64
e 18 65
e 18 66
e 18 67
e 18 68
e 18 74
e 18 97
e 19 20
e 19 21
e 19 22
e 19 23
e 19 24
e 19 25
e 19 26
e 19 27
e 19 28
e 19 29
e 19 30
e 19 31
e 19 32
e 19 33
e 19 34
e 19 35
e 19 36
e 19 37
e 19 38
e 19 40
e 19 41
e 19 42
e 19 43
e 19 44
e 19 45
e 19 46
e 19 47
e 19 48
e 19 49
e 19 50
e 19 61
e 19 62
e 19 63
e 19 64
e 19 65
e 19 66
e 19 69
e 19 76
e 19 94
e 20 21
e 20 22
e 20 23
e 20 24
e 20 25
e 20 26
e 20 27
e 20 28
e 20 29
e 20 30
e 20 31
e 20 32
e 20 33
e 20 34
e 20 35
e 20 36
e 20 37
e 20 38
e 20 40
e 20 41
e 20 44
e 20 45
e 20 46
e 20 47
e 20 48
e 20 49
e 20 50
e 20 61
e 20 62
e 20 63
e 20 64
e 20 65
e 20 67
e 20 72
e 20 79
e 20 85
e 21 22
e 21 23
e 21 24
e 21 25
e 21 26
e 21 27
e 21 28
e 21 29
e 21 30
e 21 31
e 21 32
e 21 33
e 21 34
e 21 35
e 21 36
e 21 37
e 21 38
e 21 39
e 21 40
e 21 41
e 21 42
e 21 43
e 21 44
e 21 45
e 21 46
e 21 48
e 21 49
e 21 50
e 21 61
e 21 62
e 21 63
e 21 64
e 21 65
e 21 66
e 21 67
e 21 68
e 22 23
e 22 24
e 22 25
e 22 26
e 22 27
e 22 28
e 22 29
e 22 30
e 22 31
e 22 32
e 22 34
e 22 35
e 22 36
e 22 37
e 22 39
e 22 40
e 22 42
e 22 43
e 22 44
e 22 45
e 22 46
e 22 47
e 22 48
e 22 49
e 22 50
e 22 61
e 22 62
e 22 63
e 22 64
e 22 65
e 22 66
e 22 67
e 22 68
e 22 73
e 22 80
e 22 90
e 23 24
e 23 25
e 23 26
e 23 27
e 23 28
e 23 29
e 23 30
e 23 31
e 23 32
e 23 33
e 23 34
e 23 35
e 23 36
e 23 37
e 23 38
e 23 39
e 23 40
e 23 41
e 23 42
e 23 43
e 23 44
e 23 45
e 23 46
e 23 47
e 23 48
e 23 49
e 23 50
e 23 61
e 23 62
e 23 63
e 23 64
e 23 65
e 23 66
e 23 67
e 23 85
e 23 87
e 23 89
e 23 93
e 23 94
e 24 25
e 24 26
e 24 27
e 24 28
e 24 29
e 24 30
e 24 31
e 24 32
e 24 33
e 24 34
e 24 35
e 24 36
e 24 37
e 24 38
e 24 39
e 24 40
e 24 41
e 24 42
e 24 43
e 24 44
e 24 45
e 24 47
e 24 48
e 24 49
e 24 50
e 24 61
e 24 62
e 24 63
e 24 64
e 24 65
e 24 66
e 24 67
e 24 69
e 24 89
e 25 26
e 25 27
e 25 28
e 25 29
e 25 30
e 25 31
e 25 32
e 25 33
e 25 34
e 25 35
e 25 36
e 25 37
e 25 38
e 25 39
e 25 40
e 25 42
e 25 43
e 25 44
e 25 45
e 25 46
e 25 47
e 25 48
e 25 49
e 25 50
e 25 87
e 26 27
e 26 28
e 26 29
e 26 30
e 26 31
e 26 32
e 26 33
e 26 34
e 26 35
e 26 36
e 26 38
e 26 39
e 26 40
e 26 42
e 26 43
e 26 44
e 26 45
e 26 46
e 26 47
e 26 48
e 26 49
e 26 50
e 26 93
e 27 28
e 27 29
e 27 30
e 27 31
e 27 32
e 27 33
e 27 34
e 27 35
e 27 36
e 27 37
e 27 39
e 27 40
e 27 41
e 27 42
e 27 43
e 27 44
e 27 45
e 27 46
e 27 47
e 27 49
e 27 50
e 27 85
e 28 29
e 28 30
e 28 31
e 28 32
e 28 33
e 28 34
e 28 35
e 28 36
e 28 37
e 28 39
e 28 40
e 28 41
e 28 43
e 28 44
e 28 45
e 28 46
e 28 47
e 28 48
e 28 49
e 28 50
e 28 88
e 28 91
e 29 30
e 29 31
e 29 32
e 29 33
e 29 34
e 29 35
e 29 36
e 29 38
e 29 39
e 29 40
e 29 41
e 29 42
e 29 43
e 29 44
e 29 45
e 29 46
e 29 47
e 29 48
e 29 49
e 29 50
e 29 86
e 30 31
e 30 32
e 30 34
e 30 35
e 30 36
e 30 37
e 30 38
e 30 39
e 30 40
e 30 41
e 30 42
e 30 43
e 30 44
e 30 45
e 30 46
e 30 47
e 30 49
e 30 50
e 30 54
e 30 88
e 30 93
e 31 32
e 31 33
e 31 34
e 31 35
e 31 36
e 31 37
e 31 38
e 31 39
e 31 40
e 31 42
e 31 43
e 31 44
e 31 45
e 31 46
e 31 47
e 31 48
e 31 49
e 31 50
e 32 33
e 32 34
e 32 35
e 32 36
e 32 38
e 32 39
e 32 40
e 32 41
e 32 42
e 32 43
e 32 44
e 32 45
e 32 46
e 32 87
e 32 93
e 33 34
e 33 35
e 33 36
e 33 37
e 33 38
e 33 39
e 33 40
e 33 41
e 33 42
e 33 43
e 33 44
e 33 45
e 33 46
e 33 88
e 34 35
e 34 36
e 34 37
e 34 38
e 34 39
e 34 40
e 34 41
e 34 42
e 34 43
e 34 44
e 34 45
e 34 46
e 34 50
e 35 36
e 35 37
e 35 38
e 35 39
e 35 40
e 35 41
e 35 42
e 35 43
e 35 44
e 35 46
e 36 37
e 36 38
e 36 39
e 36 40
e 36 41
e 36 42
e 36 43
e 36 44
e 36 45
e 36 46
e 37 38
e 37 39
e 37 40
e 37 41
e 37 42
e 37 43
e 37 44
e 37 45
e 37 46
e 37 91
e 37 100
e 38 39
e 38 40
e 38 41
e 38 42
e 38 43
e 38 44
e 38 45
e 38 46
e 38 48
e 38 90
e 38 94
e 38 99
e 39 40
e 39 41
e 39 42
e 39 43
e 39 44
e 39 45
e 39 46
e 39 89
e 39 91
e 40 41
e 40 42
e 40 43
e 40 44
e 40 45
e 40 46
e 41 42
e 41 43
e 41 44
e 41 45
e 41 46
e 42 43
e 42 44
e 42 45
e 42 46
e 42 90
e 43 44
e 43 45
e 43 46
e 43 67
e 43 84
e 43 92
e 44 45
e 44 46
e 44 69
e 44 73
e 44 76
e 44 84
e 44 98
e 44 99
e 45 46
e 45 82
e 45 89
e 45 92
e 45 93
e 46 82
e 46 88
e 46 90
e 46 94
e 47 48
e 47 49
e 47 50
e 47 83
e 47 84
e 47 89
e 48 49
e 48 50
e 48 83
e 48 90
e 48 91
e 48 92
e 49 50
e 50 98
e 51 52
e 51 53
e 52 53
e 54 55
e 54 56
e 54 57
e 54 58
e 54 60
e 54 83
e 54 84
e 54 85
e 54 86
e 54 87
e 54 88
e 54 89
e 54 91
e 54 92
e 54 93
e 54 94
e 54 98
e 54 99
e 54 100
e 55 56
e 55 57
e 55 58
e 55 59
e 55 60
e 55 83
e 55 84
e 55 85
e 55 86
e 55 87
e 55 88
e 55 89
e 55 91
e 55 92
e 55 93
e 55 94
e 55 95
e 55 96
e 55 98
e 55 100
e 56 57
e 56 58
e 56 59
e 56 60
e 56 83
e 56 84
e 56 85
e 56 86
e 56 87
e 56 88
e 56 89
e 56 90
e 56 91
e 56 92
e 56 93
e 56 94
e 56 98
e 56 99
e 56 100
e 57 58
e 57 59
e 57 60
e 57 84
e 57 85
e 57 86
e 57 87
e 57 88
e 57 89
e 57 90
e 57 91
e 57 92
e 57 93
e 57 94
e 57 98
e 57 99
e 57 100
e 58 59
e 58 60
e 58 83
e 58 84
e 58 85
e 58 86
e 58 87
e 58 88
e 58 89
e 58 90
e 58 91
e 58 92
e 58 93
e 58 94
e 58 95
e 58 96
e 58 97
e 58 98
e 58 99
e 58 100
e 59 60
e 59 83
e 59 84
e 59 85
e 59 86
e 59 87
e 59 88
e 59 89
e 59 90
e 59 91
e 59 92
e 59 93
e 59 95
e 59 96
e 59 97
e 59 98
e 59 99
e 59 100
e 60 83
e 60 84
e 60 85
e 60 86
e 60 87
e 60 88
e 60 89
e 60 90
e 60 91
e 60 92
e 60 93
e 60 94
e 60 95
e 60 96
e 60 97
e 61 62
e 61 63
e 61 64
e 61 65
e 61 66
e 61 67
e 61 68
e 61 69
e 61 70
e 61 71
e 61 72
e 61 73
e 61 74
e 61 75
e 61 76
e 61 77
e 61 78
e 61 79
e 61 80
e 61 81
e 61 82
e 61 83
e 61 84
e 61 91
e 61 95
e 61 96
e 61 97
e 62 63
e 62 64
e 62 65
e 62 66
e 62 67
e 62 68
e 62 69
e 62 70
e 62 71
e 62 72
e 62 73
e 62 74
e 62 75
e 62 76
e 62 77
e 62 78
e 62 79
e 62 80
e 62 81
e 62 82
e 62 83
e 62 84
e 62 95
e 62 96
e 62 97
e 63 64
e 63 65
e 63 66
e 63 67
e 63 68
e 63 69
e 63 70
e 63 71
e 63 72
e 63 73
e 63 74
e 63 75
e 63 76
e 63 77
e 63 78
e 63 79
e 63 80
e 63 81
e 63 82
e 63 83
e 63 84
e 63 86
e 63 87
e 63 89
e 63 96
e 63 97
e 64 65
e 64 66
e 64 67
e 64 68
e 64 69
e 64 70
e 64 71
e 64 72
e 64 73
e 64 74
e 64 75
e 64 76
e 64 77
e 64 78
e 64 79
e 64 80
e 64 81
e 64 82
e 64 83
e 64 84
e 64 88
e 64 92
e 64 95
e 64 96
e 64 97
e 65 66
e 65 67
e 65 68
e 65 69
e 65 70
e 65 71
e 65 72
e 65 73
e 65 74
e 65 75
e 65 76
e 65 77
e 65 78
e 65 79
e 65 80
e 65 81
e 65 82
e 65 83
e 65 84
e 65 95
e 65 96
e 65 97
e 66 67
e 66 68
e 66 69
e 66 70
e 66 71
e 66 72
e 66 73
e 66 74
e 66 75
e 66 76
e 66 77
e 66 78
e 66 79
e 66 80
e 66 81
e 66 83
e 66 84
e 66 86
e 66 87
e 66 92
e 66 95
e 66 96
e 66 97
e 67 68
e 67 69
e 67 70
e 67 71
e 67 72
e 67 73
e 67 74
e 67 75
e 67 76
e 67 77
e 67 78
e 67 79
e 67 80
e 67 82
e 67 83
e 67 84
e 67 90
e 67 91
e 67 92
e 67 95
e 67 96
e 67 97
e 68 70
e 68 71
e 68 72
e 68 73
e 68 74
e 68 75
e 68 76
e 68 77
e 68 78
e 68 79
e 68 80
e 68 81
e 68 83
e 68 84
e 68 87
e 68 89
e 68 90
e 68 95
e 68 96
e 69 70
e 69 71
e 69 72
e 69 73
e 69 74
e 69 75
e 69 76
e 69 78
e 69 79
e 69 80
e 69 81
e 69 82
e 69 83
e 69 84
e 69 87
e 69 94
e 69 95
e 69 96
e 69 97
e 69 98
e 69 99
e 69 100
e 70 71
e 70 72
e 70 73
e 70 74
e 70 75
e 70 76
e 70 77
e 70 78
e 70 79
e 70 80
e 70 81
e 70 82
e 70 83
e 70 84
e 70 85
e 70 86
e 70 90
e 70 94
e 70 95
e 70 96
e 70 97
e 70 98
e 71 72
e 71 73
e 71 74
e 71 75
e 71 76
e 71 77
e 71 78
e 71 80
e 71 81
e 71 82
e 71 83
e 71 84
e 71 87
e 71 89
e 71 93
e 71 94
e 71 95
e 71 96
e 71 97
e 71 98
e 71 99
e 71 100
e 72 74
e 72 75
e 72 76
e 72 77
e 72 78
e 72 79
e 72 80
e 72 81
e 72 82
e 72 83
e 72 84
e 72 86
e 72 87
e 72 88
e 72 91
e 72 94
e 72 95
e 72 96
e 72 97
e 72 98
e 72 99
e 72 100
e 73 74
e 73 75
e 73 76
e 73 77
e 73 78
e 73 79
e 73 80
e 73 81
e 73 82
e 73 83
e 73 84
e 73 94
e 73 95
e 73 96
e 73 97
e 73 98
e 73 100
e 74 75
e 74 76
e 74 77
e 74 78
e 74 80
e 74 81
e 74 82
e 74 83
e 74 84
e 74 94
e 74 95
e 74 96
e 74 97
e 75 76
e 75 77
e 75 78
e 75 79
e 75 80
e 75 81
e 75 82
e 75 83
e 75 84
e 75 85
e 75 86
e 75 87
e 75 88
e 75 90
e 75 91
e 75 92
e 75 94
e 75 95
e 75 97
e 75 99
e 76 77
e 76 78
e 76 79
e 76 80
e 76 81
e 76 82
e 76 84
e 76 85
e 76 86
e 76 87
e 76 88
e 76 89
e 76 90
e 76 91
e 76 94
e 76 95
e 76 96
e 76 97
e 76 99
e 77 78
e 77 79
e 77 80
e 77 81
e 77 82
e 77 83
e 77 84
e 77 85
e 77 86
e 77 87
e 77 88
e 77 89
e 77 90
e 77 91
e 77 92
e 77 94
e 77 95
e 77 96
e 77 97
e 77 98
e 77 99
e 77 100
e 78 79
e 78 81
e 78 83
e 78 85
e 78 86
e 78 87
e 78 88
e 78 89
e 78 91
e 78 92
e 78 94
e 78 95
e 78 96
e 78 97
e 78 98
e 78 99
e 78 100
e 79 80
e 79 81
e 79 82
e 79 83
e 79 84
e 79 85
e 79 86
e 79 87
e 79 88
e 79 89
e 79 90
e 79 91
e 79 92
e 79 94
e 79 95
e 79 96
e 79 97
e 79 98
e 79 99
e 79 100
e 80 81
e 80 82
e 80 83
e 80 84
e 80 85
e 80 86
e 80 87
e 80 88
e 80 89
e 80 90
e 80 92
e 80 94
e 80 95
e 80 96
e 80 97
e 80 98
e 80 99
e 80 100
e 81 82
e 81 83
e 81 84
e 81 85
e 81 86
e 81 87
e 81 88
e 81 89
e 81 90
e 81 91
e 81 92
e 81 94
e 81 95
e 81 96
e 81 97
e 81 98
e 81 99
e 81 100
e 82 83
e 82 84
e 82 85
e 82 86
e 82 87
e 82 88
e 82 89
e 82 90
e 82 91
e 82 92
e 82 94
e 82 95
e 82 96
e 82 97
e 82 98
e 82 100
e 83 84
e 83 85
e 83 86
e 83 87
e 83 88
e 83 89
e 83 90
e 83 91
e 83 92
e 83 94
e 83 98
e 83 99
e 83 100
e 84 85
e 84 86
e 84 87
e 84 88
e 84 89
e 84 90
e 84 91
e 84 92
e 84 94
e 84 97
e 84 98
e 84 99
e 84 100
e 85 86
e 85 87
e 85 88
e 85 89
e 85 90
e 85 91
e 85 92
e 85 94
e 85 98
e 85 99
e 85 100
e 86 87
e 86 88
e 86 89
e 86 90
e 86 91
e 86 92
e 86 94
e 86 98
e 86 99
e 86 100
e 87 88
e 87 89
e 87 90
e 87 91
e 87 92
e 87 94
e 87 98
e 87 99
e 87 100
e 88 89
e 88 90
e 88 91
e 88 92
e 88 94
e 88 98
e 88 99
e 88 100
e 89 90
e 89 91
e 89 92
e 89 94
e 89 99
e 89 100
e 90 91
e 90 92
e 90 98
e 90 99
e 90 100
e 91 92
e 91 96
e 91 98
e 91 99
e 91 100
e 92 98
e 92 99
e 92 100
e 93 94
e 93 98
e 93 99
e 93 100
e 94 98
e 94 99
e 94 100
e 95 96
e 97 98
e 97 99
e 97 100
e 98 99
e 98 100
e 99 100
